10
1 0 71
2 0 16
2 1 51
3 0 43
3 1 9
3 2 29
4 0 57
4 1 73
4 2 96
4 3 116
5 0 19
5 1 16
5 2 81
5 3 44
5 4 55
6 0 59
6 1 15
6 2 118
6 3 7
6 4 42
6 5 51
7 0 47
7 1 50
7 2 113
7 3 83
7 4 113
7 5 48
7 6 57
8 0 59
8 1 49
8 2 119
8 3 103
8 4 47
8 5 83
8 6 111
8 7 49
9 0 89
9 1 93
9 2 55
9 3 53
9 4 86
9 5 65
9 6 65
9 7 8
9 8 35
